% demand
num_movements = 14;
loading_factor = [1400, 1050, 900, 1150, 1400, 2000, 1100, 1250, 800, 850, 1300, 1300, 1950, 1050];
pickup_time = [0, 0, 0, 0, 0, 1, 1, 1, 1, 3, 3, 3, 5, 5];
delivery_time = [1, 1, 1, 1, 1, 2, 2, 2, 4, 4, 6, 4, 6, 6];

% transporter definition
total_capacity = 7000;
num_decks = 3;
capacity = [3000, 1000, 3000];

% ways out of decks
num_ways_out = 1;
paths_out = array3d(decks, ways_out, decks, [
% ways out of deck d1
2, 3, 0, 

% ways out of deck d2
3, 0, 0, 

% ways out of deck d3
0, 0, 0,	

]);

